
;this file is automatically generated: Tue Mar 02 16:20:05 CST 2021

;declarations generated

(declare-fun obj_1e8c1ae6_9867_4e47_93d5_94beb092b608 ( Int) Int)
(declare-fun oclExcludes ( Int Int) Bool)
(declare-fun Cardinality ( Int) Int)
(declare-fun type_ae5baea2_c601_4062_b1fd_e2233a97c805_Class14 ( Int) Bool)
(declare-fun type_ae5baea2_c601_4062_b1fd_e2233a97c805_Class15 ( Int) Bool)
(declare-fun type_ae5baea2_c601_4062_b1fd_e2233a97c805_Class12 ( Int) Bool)
(declare-fun type_ae5baea2_c601_4062_b1fd_e2233a97c805_Class13 ( Int) Bool)
(declare-fun type_ae5baea2_c601_4062_b1fd_e2233a97c805_Class18 ( Int) Bool)
(declare-fun type_ae5baea2_c601_4062_b1fd_e2233a97c805_Class19 ( Int) Bool)
(declare-fun type_ae5baea2_c601_4062_b1fd_e2233a97c805_Class16 ( Int) Bool)
(declare-fun type_ae5baea2_c601_4062_b1fd_e2233a97c805_Class17 ( Int) Bool)
(declare-fun type_ae5baea2_c601_4062_b1fd_e2233a97c805_Class10 ( Int) Bool)
(declare-fun type_ae5baea2_c601_4062_b1fd_e2233a97c805_Class11 ( Int) Bool)
(declare-fun type_ae5baea2_c601_4062_b1fd_e2233a97c805_Class25 ( Int) Bool)
(declare-fun type_ae5baea2_c601_4062_b1fd_e2233a97c805_Class26 ( Int) Bool)
(declare-fun type_ae5baea2_c601_4062_b1fd_e2233a97c805_Class23 ( Int) Bool)
(declare-fun type_ae5baea2_c601_4062_b1fd_e2233a97c805_Class24 ( Int) Bool)
(declare-fun type_ae5baea2_c601_4062_b1fd_e2233a97c805_Class29 ( Int) Bool)
(declare-fun type_ae5baea2_c601_4062_b1fd_e2233a97c805_Class27 ( Int) Bool)
(declare-fun type_ae5baea2_c601_4062_b1fd_e2233a97c805_Class28 ( Int) Bool)
(declare-fun type_ae5baea2_c601_4062_b1fd_e2233a97c805_Class21 ( Int) Bool)
(declare-fun type_ae5baea2_c601_4062_b1fd_e2233a97c805_Class22 ( Int) Bool)
(declare-fun type_ae5baea2_c601_4062_b1fd_e2233a97c805_Class20 ( Int) Bool)
(declare-fun type_ae5baea2_c601_4062_b1fd_e2233a97c805_Class8 ( Int) Bool)
(declare-fun type_ae5baea2_c601_4062_b1fd_e2233a97c805_Class7 ( Int) Bool)
(declare-fun type_ae5baea2_c601_4062_b1fd_e2233a97c805_Class9 ( Int) Bool)
(declare-fun type_ae5baea2_c601_4062_b1fd_e2233a97c805_Class4 ( Int) Bool)
(declare-fun type_ae5baea2_c601_4062_b1fd_e2233a97c805_Class3 ( Int) Bool)
(declare-fun type_ae5baea2_c601_4062_b1fd_e2233a97c805_Class6 ( Int) Bool)
(declare-fun type_ae5baea2_c601_4062_b1fd_e2233a97c805_Class5 ( Int) Bool)
(declare-fun type_ae5baea2_c601_4062_b1fd_e2233a97c805_Class0 ( Int) Bool)
(declare-fun type_ae5baea2_c601_4062_b1fd_e2233a97c805_Class2 ( Int) Bool)
(declare-fun type_ae5baea2_c601_4062_b1fd_e2233a97c805_Class1 ( Int) Bool)
(declare-fun oclSelect ( Int Bool) Int)
(declare-fun Enum0 ( Int) Int)
(declare-fun Enum1 ( Int) Int)
(declare-fun Enum2 ( Int) Int)
(declare-fun container_ ( Int) Int)
(declare-fun oclIncludes ( Int Int) Bool)
(declare-fun class5_Class5IntAttr1 ( Int) Int)
(declare-fun class5_Class5IntAttr2 ( Int) Int)
(declare-fun ObjAt ( Int Int) Int)

;formula(s) generated
(assert (forall ((p Int)) (=> ( type_ae5baea2_c601_4062_b1fd_e2233a97c805_Class5 p )  (and (>= ( Enum0 ( obj_1e8c1ae6_9867_4e47_93d5_94beb092b608 p )  )  0) (<= ( Enum0 ( obj_1e8c1ae6_9867_4e47_93d5_94beb092b608 p )  )  3)))))
(assert (! (or (forall ((c5_2 Int)(c5_1 Int)) (=> (and ( type_ae5baea2_c601_4062_b1fd_e2233a97c805_Class5 c5_1 )  ( type_ae5baea2_c601_4062_b1fd_e2233a97c805_Class5 c5_2 ) ) (< ( class5_Class5IntAttr1 ( obj_1e8c1ae6_9867_4e47_93d5_94beb092b608 c5_1 )  )  ( class5_Class5IntAttr2 ( obj_1e8c1ae6_9867_4e47_93d5_94beb092b608 c5_2 )  ) ))) (forall ((v Int)) (=> ( type_ae5baea2_c601_4062_b1fd_e2233a97c805_Class5 v )  (not (= ( Enum0 ( obj_1e8c1ae6_9867_4e47_93d5_94beb092b608 v )  )  1) )))):named l0))
(assert (! (exists ((o Int)) (and ( type_ae5baea2_c601_4062_b1fd_e2233a97c805_Class0 ( obj_1e8c1ae6_9867_4e47_93d5_94beb092b608 o )  )  ( type_ae5baea2_c601_4062_b1fd_e2233a97c805_Class25 ( obj_1e8c1ae6_9867_4e47_93d5_94beb092b608 o )  ) )):named c0))
(assert (! (exists ((o Int)) ( type_ae5baea2_c601_4062_b1fd_e2233a97c805_Class1 ( obj_1e8c1ae6_9867_4e47_93d5_94beb092b608 o )  ) ):named c1))
(assert (! (exists ((o Int)) ( type_ae5baea2_c601_4062_b1fd_e2233a97c805_Class10 ( obj_1e8c1ae6_9867_4e47_93d5_94beb092b608 o )  ) ):named c2))
(assert (! (exists ((o Int)) ( type_ae5baea2_c601_4062_b1fd_e2233a97c805_Class11 ( obj_1e8c1ae6_9867_4e47_93d5_94beb092b608 o )  ) ):named c3))
(assert (! (exists ((o Int)) ( type_ae5baea2_c601_4062_b1fd_e2233a97c805_Class12 ( obj_1e8c1ae6_9867_4e47_93d5_94beb092b608 o )  ) ):named c4))
(assert (! (exists ((o Int)) (and (and ( type_ae5baea2_c601_4062_b1fd_e2233a97c805_Class13 ( obj_1e8c1ae6_9867_4e47_93d5_94beb092b608 o )  )  ( type_ae5baea2_c601_4062_b1fd_e2233a97c805_Class25 ( obj_1e8c1ae6_9867_4e47_93d5_94beb092b608 o )  ) ) ( type_ae5baea2_c601_4062_b1fd_e2233a97c805_Class0 ( obj_1e8c1ae6_9867_4e47_93d5_94beb092b608 o )  ) )):named c5))
(assert (! (exists ((o Int)) (and (and ( type_ae5baea2_c601_4062_b1fd_e2233a97c805_Class14 ( obj_1e8c1ae6_9867_4e47_93d5_94beb092b608 o )  )  ( type_ae5baea2_c601_4062_b1fd_e2233a97c805_Class25 ( obj_1e8c1ae6_9867_4e47_93d5_94beb092b608 o )  ) ) ( type_ae5baea2_c601_4062_b1fd_e2233a97c805_Class17 ( obj_1e8c1ae6_9867_4e47_93d5_94beb092b608 o )  ) )):named c6))
(assert (! (exists ((o Int)) ( type_ae5baea2_c601_4062_b1fd_e2233a97c805_Class15 ( obj_1e8c1ae6_9867_4e47_93d5_94beb092b608 o )  ) ):named c7))
(assert (! (exists ((o Int)) ( type_ae5baea2_c601_4062_b1fd_e2233a97c805_Class16 ( obj_1e8c1ae6_9867_4e47_93d5_94beb092b608 o )  ) ):named c8))
(assert (! (exists ((o Int)) (and ( type_ae5baea2_c601_4062_b1fd_e2233a97c805_Class17 ( obj_1e8c1ae6_9867_4e47_93d5_94beb092b608 o )  )  ( type_ae5baea2_c601_4062_b1fd_e2233a97c805_Class25 ( obj_1e8c1ae6_9867_4e47_93d5_94beb092b608 o )  ) )):named c9))
(assert (! (exists ((o Int)) (and (and ( type_ae5baea2_c601_4062_b1fd_e2233a97c805_Class18 ( obj_1e8c1ae6_9867_4e47_93d5_94beb092b608 o )  )  ( type_ae5baea2_c601_4062_b1fd_e2233a97c805_Class25 ( obj_1e8c1ae6_9867_4e47_93d5_94beb092b608 o )  ) ) ( type_ae5baea2_c601_4062_b1fd_e2233a97c805_Class17 ( obj_1e8c1ae6_9867_4e47_93d5_94beb092b608 o )  ) )):named c10))
(assert (! (exists ((o Int)) ( type_ae5baea2_c601_4062_b1fd_e2233a97c805_Class19 ( obj_1e8c1ae6_9867_4e47_93d5_94beb092b608 o )  ) ):named c11))
(assert (! (exists ((o Int)) ( type_ae5baea2_c601_4062_b1fd_e2233a97c805_Class2 ( obj_1e8c1ae6_9867_4e47_93d5_94beb092b608 o )  ) ):named c12))
(assert (! (exists ((o Int)) ( type_ae5baea2_c601_4062_b1fd_e2233a97c805_Class20 ( obj_1e8c1ae6_9867_4e47_93d5_94beb092b608 o )  ) ):named c13))
(assert (! (exists ((o Int)) (and (and (and ( type_ae5baea2_c601_4062_b1fd_e2233a97c805_Class21 ( obj_1e8c1ae6_9867_4e47_93d5_94beb092b608 o )  )  ( type_ae5baea2_c601_4062_b1fd_e2233a97c805_Class25 ( obj_1e8c1ae6_9867_4e47_93d5_94beb092b608 o )  ) ) ( type_ae5baea2_c601_4062_b1fd_e2233a97c805_Class13 ( obj_1e8c1ae6_9867_4e47_93d5_94beb092b608 o )  ) ) ( type_ae5baea2_c601_4062_b1fd_e2233a97c805_Class0 ( obj_1e8c1ae6_9867_4e47_93d5_94beb092b608 o )  ) )):named c14))
(assert (! (exists ((o Int)) ( type_ae5baea2_c601_4062_b1fd_e2233a97c805_Class22 ( obj_1e8c1ae6_9867_4e47_93d5_94beb092b608 o )  ) ):named c15))
(assert (! (exists ((o Int)) (and (and (and (and ( type_ae5baea2_c601_4062_b1fd_e2233a97c805_Class23 ( obj_1e8c1ae6_9867_4e47_93d5_94beb092b608 o )  )  ( type_ae5baea2_c601_4062_b1fd_e2233a97c805_Class25 ( obj_1e8c1ae6_9867_4e47_93d5_94beb092b608 o )  ) ) ( type_ae5baea2_c601_4062_b1fd_e2233a97c805_Class13 ( obj_1e8c1ae6_9867_4e47_93d5_94beb092b608 o )  ) ) ( type_ae5baea2_c601_4062_b1fd_e2233a97c805_Class0 ( obj_1e8c1ae6_9867_4e47_93d5_94beb092b608 o )  ) ) ( type_ae5baea2_c601_4062_b1fd_e2233a97c805_Class21 ( obj_1e8c1ae6_9867_4e47_93d5_94beb092b608 o )  ) )):named c16))
(assert (! (exists ((o Int)) (and (and ( type_ae5baea2_c601_4062_b1fd_e2233a97c805_Class24 ( obj_1e8c1ae6_9867_4e47_93d5_94beb092b608 o )  )  ( type_ae5baea2_c601_4062_b1fd_e2233a97c805_Class25 ( obj_1e8c1ae6_9867_4e47_93d5_94beb092b608 o )  ) ) ( type_ae5baea2_c601_4062_b1fd_e2233a97c805_Class0 ( obj_1e8c1ae6_9867_4e47_93d5_94beb092b608 o )  ) )):named c17))
(assert (! (exists ((o Int)) ( type_ae5baea2_c601_4062_b1fd_e2233a97c805_Class25 ( obj_1e8c1ae6_9867_4e47_93d5_94beb092b608 o )  ) ):named c18))
(assert (! (exists ((o Int)) ( type_ae5baea2_c601_4062_b1fd_e2233a97c805_Class26 ( obj_1e8c1ae6_9867_4e47_93d5_94beb092b608 o )  ) ):named c19))
(assert (! (exists ((o Int)) (and (and ( type_ae5baea2_c601_4062_b1fd_e2233a97c805_Class27 ( obj_1e8c1ae6_9867_4e47_93d5_94beb092b608 o )  )  ( type_ae5baea2_c601_4062_b1fd_e2233a97c805_Class25 ( obj_1e8c1ae6_9867_4e47_93d5_94beb092b608 o )  ) ) ( type_ae5baea2_c601_4062_b1fd_e2233a97c805_Class17 ( obj_1e8c1ae6_9867_4e47_93d5_94beb092b608 o )  ) )):named c20))
(assert (! (exists ((o Int)) (and (and (and (and ( type_ae5baea2_c601_4062_b1fd_e2233a97c805_Class28 ( obj_1e8c1ae6_9867_4e47_93d5_94beb092b608 o )  )  ( type_ae5baea2_c601_4062_b1fd_e2233a97c805_Class25 ( obj_1e8c1ae6_9867_4e47_93d5_94beb092b608 o )  ) ) ( type_ae5baea2_c601_4062_b1fd_e2233a97c805_Class13 ( obj_1e8c1ae6_9867_4e47_93d5_94beb092b608 o )  ) ) ( type_ae5baea2_c601_4062_b1fd_e2233a97c805_Class0 ( obj_1e8c1ae6_9867_4e47_93d5_94beb092b608 o )  ) ) ( type_ae5baea2_c601_4062_b1fd_e2233a97c805_Class21 ( obj_1e8c1ae6_9867_4e47_93d5_94beb092b608 o )  ) )):named c21))
(assert (! (exists ((o Int)) ( type_ae5baea2_c601_4062_b1fd_e2233a97c805_Class29 ( obj_1e8c1ae6_9867_4e47_93d5_94beb092b608 o )  ) ):named c22))
(assert (! (exists ((o Int)) ( type_ae5baea2_c601_4062_b1fd_e2233a97c805_Class3 ( obj_1e8c1ae6_9867_4e47_93d5_94beb092b608 o )  ) ):named c23))
(assert (! (exists ((o Int)) (and (and (and (and ( type_ae5baea2_c601_4062_b1fd_e2233a97c805_Class4 ( obj_1e8c1ae6_9867_4e47_93d5_94beb092b608 o )  )  ( type_ae5baea2_c601_4062_b1fd_e2233a97c805_Class25 ( obj_1e8c1ae6_9867_4e47_93d5_94beb092b608 o )  ) ) ( type_ae5baea2_c601_4062_b1fd_e2233a97c805_Class24 ( obj_1e8c1ae6_9867_4e47_93d5_94beb092b608 o )  ) ) ( type_ae5baea2_c601_4062_b1fd_e2233a97c805_Class6 ( obj_1e8c1ae6_9867_4e47_93d5_94beb092b608 o )  ) ) ( type_ae5baea2_c601_4062_b1fd_e2233a97c805_Class0 ( obj_1e8c1ae6_9867_4e47_93d5_94beb092b608 o )  ) )):named c24))
(assert (! (exists ((o Int)) ( type_ae5baea2_c601_4062_b1fd_e2233a97c805_Class5 ( obj_1e8c1ae6_9867_4e47_93d5_94beb092b608 o )  ) ):named c25))
(assert (! (exists ((o Int)) (and (and (and ( type_ae5baea2_c601_4062_b1fd_e2233a97c805_Class6 ( obj_1e8c1ae6_9867_4e47_93d5_94beb092b608 o )  )  ( type_ae5baea2_c601_4062_b1fd_e2233a97c805_Class25 ( obj_1e8c1ae6_9867_4e47_93d5_94beb092b608 o )  ) ) ( type_ae5baea2_c601_4062_b1fd_e2233a97c805_Class24 ( obj_1e8c1ae6_9867_4e47_93d5_94beb092b608 o )  ) ) ( type_ae5baea2_c601_4062_b1fd_e2233a97c805_Class0 ( obj_1e8c1ae6_9867_4e47_93d5_94beb092b608 o )  ) )):named c26))
(assert (! (exists ((o Int)) ( type_ae5baea2_c601_4062_b1fd_e2233a97c805_Class7 ( obj_1e8c1ae6_9867_4e47_93d5_94beb092b608 o )  ) ):named c27))
(assert (! (exists ((o Int)) ( type_ae5baea2_c601_4062_b1fd_e2233a97c805_Class8 ( obj_1e8c1ae6_9867_4e47_93d5_94beb092b608 o )  ) ):named c28))
(assert (! (exists ((o Int)) ( type_ae5baea2_c601_4062_b1fd_e2233a97c805_Class9 ( obj_1e8c1ae6_9867_4e47_93d5_94beb092b608 o )  ) ):named c29))

 ;end of formula 